proyfinal/src/viki/013/experimentInOfficeAgust.take6.output/9991ac98-f0e3-4ace-9bd8-c1151a006fdf.als.out
Reading from standard input... Use '--help' for help.
============================[ Problem Statistics ]=============================
|                                                                             |
|  Number of variables:         87638                                         |
|  Number of clauses:          161767                                         |
|  Parse time:                   0.03 s                                       |
|                                                                             |
============================[ Search Statistics ]==============================
| Conflicts |          ORIGINAL         |          LEARNT          | Progress |
|           |    Vars  Clauses Literals |    Limit  Clauses Lit/Cl |          |
===============================================================================
|       100 |   62676   106211   265502 |    38944      100      9 | 28.483 % |
|       250 |   62676   106211   265502 |    42838      250     19 | 28.483 % |
|       475 |   62675   106208   265496 |    47122      474     46 | 28.484 % |
|       812 |   62675   106208   265496 |    51834      811     65 | 28.484 % |
|      1318 |   62675   106208   265496 |    57017     1317     64 | 28.484 % |
|      2077 |   62675   106208   265496 |    62719     2076     67 | 28.484 % |
|      3216 |   62675   106208   265496 |    68991     3215     80 | 28.484 % |
|      4924 |   62675   106208   265496 |    75890     4923     84 | 28.484 % |
|      7486 |   62602   105800   264595 |    83479     6181     87 | 28.568 % |
===============================================================================
restarts              : 40
conflicts             : 9418           (6077 /sec)
decisions             : 33325          (0.00 % random) (21502 /sec)
propagations          : 15681357       (10117958 /sec)
conflict literals     : 762678         (59.73 % deleted)
Memory used           : 26.88 MB
CPU time              : 1.54985 s

UNSATISFIABLE
